Route 1: 0 97 12 26 62 59 43 29 41 78 54 55 67 0
Route 2: 0 35 27 39 30 100 24 65 31 4 74 0
Route 3: 0 96 76 72 6 11 57 49 7 42 94 0
Route 4: 0 58 53 10 46 93 63 23 2 61 13 0
Route 5: 0 91 85 66 18 89 92 33 37 0
Route 6: 0 50 21 38 75 22 77 8 0
Route 7: 0 5 82 70 34 44 87 84 25 99 86 0
Route 8: 0 51 9 1 64 68 40 3 28 45 32 52 0
Route 9: 0 20 95 48 73 60 14 81 15 0
Route 10: 0 56 83 71 79 17 69 47 98 88 16 0
Route 11: 0 36 19 90 80 0
